2
1000 4
48
128 1 1
131 1 1
132 1 2
133 1 1
139 1 1
273 1 1
30 1 1
290 1 1
35 1 1
167 1 1
44 1 1
46 1 1
304 1 1
49 1 2
286 1 1
182 1 1
56 1 1
314 1 1
351 1 1
60 1 1
193 1 1
66 1 1
267 1 1
324 1 1
73 1 1
74 1 1
75 1 1
78 1 1
208 1 1
338 1 1
211 1 1
213 1 1
86 1 1
219 1 1
220 1 1
349 1 1
94 1 1
223 1 1
356 1 1
103 1 1
363 1 1
365 1 1
238 1 1
240 1 1
241 1 1
375 1 1
124 1 1
253 1 1
